1601528400
1601542800
1601625600
1601640000
1601884800
1601899200
1601971200
1601985600
1602057600
1602072000
1602144600
1602159000
1602230400
1602244800
1602489900
1602504300
1602577800
1602592200
1602662400
1602676800
1602748800
1602763200
1602836400
1602850800
1603094400
1603108800
1603180800
1603195200
1603269000
1603283400
1603354500
1603368900
1603440000
1603454400
1603702800
1603717200
1603789200
1603803600
1603875600
1603890000
1603963800
1603978200
1604048400
1604062800
